NAME : random89.763.tour
COMMENT : Length = 763
COMMENT : Found by LKH [Keld Helsgaun] Mon Dec 30 21:04:12 2024
TYPE : TOUR
DIMENSION : 89
TOUR_SECTION
1
64
23
54
86
28
58
25
69
36
41
73
43
37
24
14
77
21
38
57
53
16
26
2
17
44
18
82
49
81
35
55
29
39
8
5
60
4
88
27
19
83
67
75
87
7
84
76
20
45
34
42
63
72
89
51
46
66
62
80
12
71
33
32
56
65
47
48
15
52
59
61
6
74
70
22
30
68
10
13
40
50
85
9
31
11
3
79
78
-1
EOF
